32	0

0	1	2
7	1	3
7	1	4
8	1	5
4	1	6
9	1	7
5	1	8
4	1	9
6	1	10
8	1	11
2	1	12
6	1	13
9	1	14
8	1	15
5	1	16
5	1	17
9	1	18
9	1	19
8	1	20
4	1	21
2	1	22
10	1	23
3	1	24
3	1	25
8	1	26
4	1	27
5	1	28
1	1	29
2	1	30
10	1	31
5	1	32
0	0
